&CONTROL
  calculation='relax',
  prefix='calc',
  pseudo_dir='/gpfs/pace1/project/chbe-medford/medford-share/data/pseudos/SSSP_eff_PBE',
  outdir='.',
  tefield=.true.,
  dipfield=.true.,
  tprnfor=.true.,
/
&SYSTEM
  ibrav=0,
  celldm(1)=1.8897261245650618d0,
  nat=48,
  ntyp=3,
  ecutwfc=29.3994590327d0,
  ecutrho=293.994590327d0,
  nbnd=202,
  occupations='smearing',
  smearing='fd',
  degauss=0.00734986475817d0,
  nspin=2,
  starting_magnetization(1)=0.0d0,
  starting_magnetization(2)=0.0d0,
  starting_magnetization(3)=0.0166666666667d0,
  input_dft='BEEF-vdW',
  ensemble_energies=.true.,
  print_ensemble_energies=.true.,
  edir=3,
  emaxpos=0.93620224707d0,
  eopreg=0.025d0,
  eamp=0.0d0,
/
&ELECTRONS
  diagonalization='david',
  conv_thr=7.34986475817e-08,
  mixing_beta=0.05d0,
  electron_maxstep=1000,
  startingwfc='atomic',
  conv_thr=7.34986475817e-08,
/
&IONS
  ion_dynamics='ase3',
/
CELL_PARAMETERS
    6.579727202290808d0     0.000000000000000d0     0.000000000000000d0
   -0.000775132442404d0     5.961596420607155d0     0.000000000000000d0
    0.000000000000000d0    -0.000000000000000d0    25.155947251439940d0
ATOMIC_SPECIES
Ti1 47.867d0 Ti.UPF
O1 15.999d0 O.UPF
O2 15.999d0 O.UPF
ATOMIC_POSITIONS {crystal}
Ti1      0.000123603383822d0     0.499897385958536d0     0.238512187198856d0
Ti1      0.500142521004230d0     0.250038178055688d0     0.238522014307695d0
O1       0.000095322930372d0     0.000084774873452d0     0.317452257936818d0
O1       0.500112315057126d0     0.000084209992886d0     0.290342007718641d0
O1       0.698270105622955d0     0.250236102495782d0     0.369213011426276d0
O1       0.301995368073695d0     0.249987007385122d0     0.369214717028816d0
Ti1      0.500147441142727d0     0.498248845961262d0     0.364345775429313d0
Ti1      0.000163586587919d0     0.250075555452039d0     0.373103599127926d0
O1       0.500036736209555d0     0.000072957739138d0     0.450858508551997d0
O1       0.000110628443022d0     0.000099963902712d0     0.420064374270372d0
O1       0.197546471754326d0     0.250110785719729d0     0.502833040219017d0
O1       0.802289550471906d0     0.250087406310467d0     0.502810847774744d0
Ti1      0.000491952465549d0     0.500130721727255d0     0.510252629771973d0
Ti1      0.500699030966336d0     0.250077013545019d0     0.496585356886917d0
O1       0.000100834042693d0     0.000095940489219d0     0.582998526948274d0
O1       0.500014051830430d0     0.000080314114226d0     0.553537981582245d0
O1       0.688362062012551d0     0.250082998331341d0     0.638941641874243d0
O1       0.311841108095104d0     0.250066758523821d0     0.638952188165935d0
Ti1      0.500101156646920d0     0.500083628050724d0     0.625197990363307d0
Ti1      0.000106289321566d0     0.250068846165719d0     0.643277847174511d0
O1       0.500093721748991d0     0.000084921243389d0     0.186906639369252d0
O1       0.000095465116091d0     0.000091548659015d0     0.685493860813859d0
O1       0.198268504441574d0     0.250236248865719d0     0.238667392858710d0
O1       0.801993766892314d0     0.249987153755059d0     0.238669098461250d0
Ti1      0.000123603383822d0     0.999897385958536d0     0.238512187198856d0
Ti1      0.500142521004230d0     0.750038178055688d0     0.238522014307695d0
O1       0.000095322930372d0     0.500084774873452d0     0.317452257936818d0
O1       0.500112315057126d0     0.500084209992886d0     0.290342007718641d0
O1       0.698270105622955d0     0.750236102495782d0     0.369213011426276d0
O1       0.301995368073695d0     0.749987007385122d0     0.369214717028816d0
Ti1      0.500147429327193d0     0.998248857940818d0     0.364345925251192d0
Ti1      0.000163568980270d0     0.750072859338849d0     0.373103602515714d0
O1       0.500036731197275d0     0.500072976187841d0     0.450858306108192d0
O1       0.000110616015786d0     0.500099956627257d0     0.420064131674721d0
O1       0.197546462475125d0     0.750109076471312d0     0.502833044625846d0
O1       0.802289558447903d0     0.750085738202115d0     0.502810851851920d0
Ti1      0.000491932736698d0     0.000130665098405d0     0.510255228284321d0
Ti1      0.500699043151346d0     0.750081057282648d0     0.496585359297785d0
O1       0.000100821662326d0     0.500095951920313d0     0.583000906775415d0
O1       0.500014055706688d0     0.500080337635740d0     0.553537707673161d0
O1       0.688362050574128d0     0.750079947415369d0     0.638941641227642d0
O1       0.311841120076125d0     0.750063706105500d0     0.638952187573154d0
Ti1      0.500101138957589d0     0.000083588985268d0     0.625197561801936d0
Ti1      0.000106279518672d0     0.750111856422749d0     0.643277847301872d0
O1       0.500093721748991d0     0.500084921243389d0     0.186906639369252d0
O1       0.000095465896017d0     0.500091544774407d0     0.685497854771505d0
O1       0.198268504441574d0     0.750236248865719d0     0.238667392858710d0
O2       0.801993766892315d0     0.749987153755059d0     0.238669098461250d0
K_POINTS automatic
4 4 1 0 0 0
