&CONTROL
  calculation='relax',
  prefix='calc',
  pseudo_dir='/gpfs/pace1/project/chbe-medford/medford-share/data/pseudos/SSSP_eff_PBE',
  outdir='.',
  tefield=.true.,
  dipfield=.true.,
  tprnfor=.true.,
/
&SYSTEM
  ibrav=0,
  celldm(1)=1.8897261245650618d0,
  nat=47,
  ntyp=4,
  ecutwfc=29.3994590327d0,
  ecutrho=293.994590327d0,
  nbnd=201,
  occupations='smearing',
  smearing='fd',
  degauss=0.00734986475817d0,
  nspin=2,
  starting_magnetization(1)=0.0d0,
  starting_magnetization(2)=0.0d0,
  starting_magnetization(3)=0.0d0,
  starting_magnetization(4)=0.0166666666667d0,
  input_dft='BEEF-vdW',
  ensemble_energies=.true.,
  print_ensemble_energies=.true.,
  edir=3,
  emaxpos=0.937742683078d0,
  eopreg=0.025d0,
  eamp=0.0d0,
/
&ELECTRONS
  diagonalization='david',
  conv_thr=7.34986475817e-08,
  mixing_beta=0.05d0,
  electron_maxstep=1000,
  startingwfc='atomic',
  conv_thr=7.34986475817e-08,
/
&IONS
  ion_dynamics='ase3',
/
CELL_PARAMETERS
    6.579727202290808d0     0.000000000000000d0     0.000000000000000d0
   -0.000775132442404d0     5.961596420607155d0     0.000000000000000d0
    0.000000000000000d0    -0.000000000000000d0    25.155947251439940d0
ATOMIC_SPECIES
Ti1 47.867d0 Ti.UPF
O1 15.999d0 O.UPF
Co1 58.933194d0 Co.UPF
O2 15.999d0 O.UPF
ATOMIC_POSITIONS {crystal}
Ti1      0.000123603383822d0     0.499897385958537d0     0.238512187198856d0
Ti1      0.500142521004230d0     0.250038178055688d0     0.238522014307695d0
O1       0.000095322930372d0     0.000084774873452d0     0.317452257936818d0
O1       0.500112315057126d0     0.000084209992886d0     0.290342007718641d0
O1       0.698270105622955d0     0.250236102495782d0     0.369213011426276d0
O1       0.301995368073694d0     0.249987007385122d0     0.369214717028816d0
Ti1      0.500183496656938d0     0.499068386329240d0     0.364951862163154d0
Ti1      0.000201236636019d0     0.253999080028258d0     0.372186450961026d0
O1       0.500021764503066d0     0.999610875499215d0     0.451548616350956d0
O1       0.000110118211166d0     0.999955381212875d0     0.420510718762429d0
O1       0.197098678414441d0     0.250411590259377d0     0.501691677564488d0
O1       0.802645133880449d0     0.250538863729576d0     0.501668632667618d0
Ti1      0.000179412706841d0     0.497266265242757d0     0.513870514151954d0
Ti1      0.500681667359713d0     0.249642673944494d0     0.498156730779990d0
O1       0.999928161441544d0     0.004969338015156d0     0.579319725393036d0
O1       0.500039762494076d0     0.000625681059277d0     0.555159066736744d0
O1       0.691124410065939d0     0.256330030939007d0     0.641103932116468d0
O1       0.308931191327485d0     0.256268067040826d0     0.641090092003449d0
Ti1      0.500057248265890d0     0.502955700986843d0     0.627086613097202d0
Ti1      0.000048916850677d0     0.204174314229383d0     0.634732934294677d0
O1       0.500093721748991d0     0.000084921243389d0     0.186906639369252d0
O1       0.999986140824057d0     0.024872728307001d0     0.688578726787691d0
O1       0.198268504441573d0     0.250236248865719d0     0.238667392858710d0
O1       0.801993766892314d0     0.249987153755059d0     0.238669098461250d0
Ti1      0.000123603383822d0     0.999897385958537d0     0.238512187198856d0
Ti1      0.500142521004230d0     0.750038178055688d0     0.238522014307695d0
O1       0.000095322930372d0     0.500084774873452d0     0.317452257936818d0
O1       0.500112315057126d0     0.500084209992886d0     0.290342007718641d0
O1       0.698270105622955d0     0.750236102495782d0     0.369213011426276d0
O1       0.301995368073694d0     0.749987007385122d0     0.369214717028816d0
Ti1      0.500171007660663d0     0.999090719559430d0     0.364792962178646d0
Ti1      0.000202090227990d0     0.747048201627824d0     0.371935479628339d0
O1       0.499997112753803d0     0.500756993507113d0     0.451329250653925d0
O1       0.000121427644133d0     0.500369344326493d0     0.418562831112142d0
O1       0.196175662163749d0     0.749915042507295d0     0.502439582836061d0
O1       0.803650326048232d0     0.749820450061095d0     0.502413299504110d0
Ti1      0.000784128319289d0     0.996885365852014d0     0.501234840698053d0
Ti1      0.500699029287935d0     0.749273880464742d0     0.497885661566911d0
O1       0.000034346376862d0     0.492593051710262d0     0.584864432852780d0
O1       0.500015417223418d0     0.501081644133375d0     0.554135282940415d0
O1       0.684399632417229d0     0.750813683888151d0     0.642633881744991d0
O1       0.315659581505508d0     0.750805727873533d0     0.642636778901913d0
Ti1      0.500027843606340d0     0.998165059641996d0     0.628243203909095d0
Co1      0.999986341258139d0     0.760048410510208d0     0.637014192330444d0
O1       0.500093721748991d0     0.500084921243389d0     0.186906639369252d0
O1       0.198268504441573d0     0.750236248865719d0     0.238667392858710d0
O2       0.801993766892314d0     0.749987153755059d0     0.238669098461250d0
K_POINTS automatic
4 4 1 0 0 0
