&CONTROL
  calculation='relax',
  prefix='calc',
  pseudo_dir='/gpfs/pace1/project/chbe-medford/medford-share/data/pseudos/SSSP_eff_PBE',
  outdir='.',
  tefield=.true.,
  dipfield=.true.,
  tprnfor=.true.,
/
&SYSTEM
  ibrav=0,
  celldm(1)=1.8897261245650618d0,
  nat=49,
  ntyp=5,
  ecutwfc=29.3994590327d0,
  ecutrho=293.994590327d0,
  nbnd=206,
  occupations='smearing',
  smearing='fd',
  degauss=0.00734986475817d0,
  nspin=2,
  starting_magnetization(1)=0.0d0,
  starting_magnetization(2)=0.0d0,
  starting_magnetization(3)=0.0d0,
  starting_magnetization(4)=0.0d0,
  starting_magnetization(5)=0.02d0,
  input_dft='BEEF-vdW',
  ensemble_energies=.true.,
  print_ensemble_energies=.true.,
  edir=3,
  emaxpos=0.982670443855d0,
  eopreg=0.025d0,
  eamp=0.0d0,
/
&ELECTRONS
  diagonalization='david',
  conv_thr=7.34986475817e-08,
  mixing_beta=0.05d0,
  electron_maxstep=1000,
  startingwfc='atomic',
  conv_thr=7.34986475817e-08,
/
&IONS
  ion_dynamics='ase3',
/
CELL_PARAMETERS
    6.579727202290808d0     0.000000000000000d0     0.000000000000000d0
   -0.000775132442404d0     5.961596420607155d0     0.000000000000000d0
    0.000000000000000d0    -0.000000000000000d0    25.155947251439940d0
ATOMIC_SPECIES
Ti1 47.867d0 Ti.UPF
O1 15.999d0 O.UPF
Co1 58.933194d0 Co.UPF
N1 14.007d0 N.UPF
N2 14.007d0 N.UPF
ATOMIC_POSITIONS {crystal}
Ti1      0.000123603383822d0     0.499897385958537d0     0.238512187198856d0
Ti1      0.500142521004230d0     0.250038178055688d0     0.238522014307695d0
O1       0.000095322930372d0     0.000084774873452d0     0.317452257936818d0
O1       0.500112315057126d0     0.000084209992886d0     0.290342007718641d0
O1       0.698270105622955d0     0.250236102495782d0     0.369213011426276d0
O1       0.301995368073694d0     0.249987007385122d0     0.369214717028816d0
Ti1      0.501155305559996d0     0.494559679324829d0     0.364878572079152d0
Ti1      0.000444730229426d0     0.251190822966519d0     0.372280312373760d0
O1       0.500746324386214d0     0.997501096264129d0     0.451377180209023d0
O1       0.000564513909269d0     0.999064071684937d0     0.420573480161136d0
O1       0.200311626818015d0     0.249507007872210d0     0.501407867947809d0
O1       0.805377654133423d0     0.246507610268848d0     0.501645490649167d0
Ti1      0.996238154732400d0     0.494729049609190d0     0.513373921147682d0
Ti1      0.486516913887589d0     0.248096229267442d0     0.497418395884545d0
O1       0.003704197701173d0     0.999318544783675d0     0.579343382212655d0
O1       0.500818774113416d0     0.995876972525837d0     0.554973064602308d0
O1       0.691722967192571d0     0.250714814635465d0     0.640319272365622d0
O1       0.312209506779756d0     0.251777424879723d0     0.640320514230978d0
Ti1      0.503148964947521d0     0.498648276022826d0     0.626328774121905d0
Ti1      0.001599493470963d0     0.202258714960831d0     0.634014930163228d0
O1       0.500093721748991d0     0.000084921243389d0     0.186906639369252d0
O1       0.003047211067938d0     0.040015808220654d0     0.690525809168322d0
O1       0.198268504441573d0     0.250236248865719d0     0.238667392858710d0
O1       0.801993766892314d0     0.249987153755059d0     0.238669098461250d0
Ti1      0.000123603383822d0     0.999897385958537d0     0.238512187198856d0
Ti1      0.500142521004230d0     0.750038178055688d0     0.238522014307695d0
O1       0.000095322930372d0     0.500084774873452d0     0.317452257936818d0
O1       0.500112315057126d0     0.500084209992886d0     0.290342007718641d0
O1       0.698270105622955d0     0.750236102495782d0     0.369213011426276d0
O1       0.301995368073694d0     0.749987007385122d0     0.369214717028816d0
Ti1      0.499853021405271d0     0.994444709297980d0     0.364716235316719d0
Ti1      0.000315996074467d0     0.745375121581056d0     0.372224729698846d0
O1       0.501374662496808d0     0.498190604903322d0     0.451062633074324d0
O1       0.000365975154811d0     0.499172200523215d0     0.418822457181795d0
O1       0.198478679273522d0     0.744995603559122d0     0.502037770020241d0
O1       0.806118376175373d0     0.746573984633436d0     0.502488372659270d0
Ti1      0.983734024283992d0     0.994759875932240d0     0.502516651262543d0
Ti1      0.485531100633502d0     0.747086642785618d0     0.497554038579269d0
O1       0.000493506630317d0     0.485115997641250d0     0.584052016884387d0
O1       0.502457827058720d0     0.498976189044504d0     0.553803470459106d0
O1       0.685716823136723d0     0.745798911616481d0     0.643123068833583d0
O1       0.317592703477587d0     0.745511897026308d0     0.643017272431345d0
Ti1      0.499981023401237d0     0.995459978851999d0     0.627469115144954d0
Co1      0.001037371456035d0     0.748884464070950d0     0.641203466804087d0
O1       0.500093721748991d0     0.500084921243389d0     0.186906639369252d0
O1       0.198268504441573d0     0.750236248865719d0     0.238667392858710d0
O1       0.801993766892314d0     0.749987153755059d0     0.238669098461250d0
N1       0.014445999876354d0     0.528104945579589d0     0.778434248340584d0
N2       0.006243409121450d0     0.536055578741552d0     0.734371466645839d0
K_POINTS automatic
4 4 1 0 0 0
