&CONTROL
  calculation='relax',
  prefix='calc',
  pseudo_dir='/gpfs/pace1/project/chbe-medford/medford-share/data/pseudos/SSSP_eff_PBE',
  outdir='.',
  tefield=.true.,
  dipfield=.true.,
  tprnfor=.true.,
/
&SYSTEM
  ibrav=0,
  celldm(1)=1.8897261245650618d0,
  nat=48,
  ntyp=4,
  ecutwfc=29.3994590327d0,
  ecutrho=293.994590327d0,
  nbnd=204,
  occupations='smearing',
  smearing='fd',
  degauss=0.00734986475817d0,
  nspin=2,
  starting_magnetization(1)=0.0d0,
  starting_magnetization(2)=0.0d0,
  starting_magnetization(3)=0.0d0,
  starting_magnetization(4)=0.0166666666667d0,
  input_dft='BEEF-vdW',
  ensemble_energies=.true.,
  print_ensemble_energies=.true.,
  edir=3,
  emaxpos=0.936837926958d0,
  eopreg=0.025d0,
  eamp=0.0d0,
/
&ELECTRONS
  diagonalization='david',
  conv_thr=7.34986475817e-08,
  mixing_beta=0.05d0,
  electron_maxstep=1000,
  startingwfc='atomic',
  conv_thr=7.34986475817e-08,
/
&IONS
  ion_dynamics='ase3',
/
CELL_PARAMETERS
    6.579727202290808d0     0.000000000000000d0     0.000000000000000d0
   -0.000775132442404d0     5.961596420607155d0     0.000000000000000d0
    0.000000000000000d0    -0.000000000000000d0    25.155947251439940d0
ATOMIC_SPECIES
Ti1 47.867d0 Ti.UPF
O1 15.999d0 O.UPF
Co1 58.933194d0 Co.UPF
O2 15.999d0 O.UPF
ATOMIC_POSITIONS {crystal}
Ti1      0.000123603383822d0     0.499897385958536d0     0.238512187198856d0
Ti1      0.500142521004230d0     0.250038178055688d0     0.238522014307695d0
O1       0.000095322930372d0     0.000084774873452d0     0.317452257936818d0
O1       0.500112315057126d0     0.000084209992886d0     0.290342007718641d0
O1       0.698270105622955d0     0.250236102495782d0     0.369213011426276d0
O1       0.301995368073695d0     0.249987007385122d0     0.369214717028816d0
Ti1      0.499091405040477d0     0.482919425219547d0     0.365297469939542d0
Ti1      0.999241183225817d0     0.248605757641663d0     0.373406625111420d0
O1       0.499008975780814d0     0.999587005695854d0     0.450586758250690d0
O1       0.999618205234114d0     0.999799665190214d0     0.419668157851273d0
O1       0.193709387336362d0     0.250571077026044d0     0.502537073653025d0
O1       0.801098194512852d0     0.249944992624856d0     0.502534868381254d0
Ti1      0.007946020690099d0     0.499984622673233d0     0.511131972364081d0
Ti1      0.510391911764841d0     0.250225020613741d0     0.497461453980379d0
O1       0.002914569404282d0     0.000059458524817d0     0.583209022285891d0
O1       0.497958764859947d0     0.999932035612281d0     0.552811942425823d0
O1       0.693527560979917d0     0.245363723138115d0     0.639363524647958d0
O1       0.314011860786066d0     0.245607149893735d0     0.639964715630984d0
Co1      0.506323267178474d0     0.500275889002646d0     0.627779081206824d0
Ti1      0.003503571183390d0     0.252177086216471d0     0.644084198924730d0
O1       0.500093721748991d0     0.000084921243389d0     0.186906639369252d0
O1       0.003162419867196d0     0.000094040516818d0     0.685940270762218d0
O1       0.198268504441574d0     0.250236248865719d0     0.238667392858710d0
O1       0.801993766892314d0     0.249987153755059d0     0.238669098461250d0
Ti1      0.000123603383822d0     0.999897385958536d0     0.238512187198856d0
Ti1      0.500142521004230d0     0.750038178055688d0     0.238522014307695d0
O1       0.000095322930372d0     0.500084774873452d0     0.317452257936818d0
O1       0.500112315057126d0     0.500084209992886d0     0.290342007718641d0
O1       0.698270105622955d0     0.750236102495782d0     0.369213011426276d0
O1       0.301995368073695d0     0.749987007385122d0     0.369214717028816d0
Ti1      0.499163340418030d0     0.982878314631589d0     0.365541587836031d0
Ti1      0.999259285628189d0     0.748451332284751d0     0.373410590117940d0
O1       0.498861700338220d0     0.499609230314910d0     0.450727950218437d0
O1       0.999412565016087d0     0.499799689995190d0     0.419744567219314d0
O1       0.193701471221072d0     0.749404506017070d0     0.502536426557544d0
O1       0.801105582387250d0     0.749979812484777d0     0.502536712009807d0
Ti1      0.006725960166689d0     0.999976272092270d0     0.510886581512497d0
Ti1      0.510386506063508d0     0.748613644650361d0     0.497515397443703d0
O1       0.002743661233505d0     0.500114977295863d0     0.583803824247322d0
O1       0.499025454247582d0     0.499967947506063d0     0.553247766676844d0
O1       0.693533935971291d0     0.755049317032159d0     0.639365139461254d0
O1       0.313987733961496d0     0.754858965491546d0     0.639991489554342d0
Ti1      0.500873550859254d0     0.000288847606846d0     0.624915918284897d0
Ti1      0.003550535692806d0     0.748189022487188d0     0.644098417669782d0
O1       0.500093721748991d0     0.500084921243389d0     0.186906639369252d0
O1       0.002863588967642d0     0.500226253250596d0     0.686769214547058d0
O1       0.198268504441574d0     0.750236248865719d0     0.238667392858710d0
O2       0.801993766892315d0     0.749987153755059d0     0.238669098461250d0
K_POINTS automatic
4 4 1 0 0 0
